40	100	100	100
93	36	81
81	1	93
90	42	84
97	16	72
92	41	99
71	49	78
78	33	69
91	31	67
66	48	90
98	28	85
82	22	74
74	38	69
95	34	72
86	34	72
78	36	89
86	2	82
99	15	97
88	1	75
77	24	69
95	21	91
86	18	82
79	16	83
77	33	99
89	9	66
71	28	84
86	46	95
83	25	78
99	38	86
68	38	97
91	18	72
98	20	88
90	3	89
69	39	70
80	25	84
80	10	81
87	10	67
95	2	69
89	1	74
84	36	99
66	3	95
